ntrucks = 3;
max_truck_weight = [15,20,40];
speed = [20,5,10] ;

% Number of deliveries and the associated set
ndeliveries = 7;
weight = [30,10,18,22,10,15,35];
ready_after = [0,0,3,2,1,2,3];
distance = [40,100,60,80,120,60,140];